cases/matpower/case24.m
ipopt
SOCW
[info | PowerModels]: extending matpower format with data: areas 4x3
[warn | PowerModels]: angmin and angmax values are 0, widening these values on branch 38 to +/- 60.0 deg.
[warn | PowerModels]: reversing the orientation of branch 37 (23, 20) to be consistent with other parallel branches
[info | PowerModels]: removing 1 cost terms from generator 1: [13000.0, 400.6849]
[info | PowerModels]: removing 1 cost terms from generator 29: [0.1, 0.001]
[info | PowerModels]: removing 1 cost terms from generator 2: [13000.0, 400.6849]
[info | PowerModels]: removing 1 cost terms from generator 6: [13000.0, 400.6849]
[info | PowerModels]: removing 1 cost terms from generator 25: [0.1, 0.001]
[info | PowerModels]: removing 1 cost terms from generator 5: [13000.0, 400.6849]
[info | PowerModels]: removing 3 cost terms from generator 15: Float64[]
[info | PowerModels]: removing 1 cost terms from generator 27: [0.1, 0.001]
[info | PowerModels]: removing 1 cost terms from generator 28: [0.1, 0.001]
[info | PowerModels]: removing 1 cost terms from generator 26: [0.1, 0.001]
[info | PowerModels]: removing 1 cost terms from generator 30: [0.1, 0.001]

******************************************************************************
This program contains Ipopt, a library for large-scale nonlinear optimization.
 Ipopt is released as open source code under the Eclipse Public License (EPL).
         For more information visit http://projects.coin-or.org/Ipopt
******************************************************************************

This is Ipopt version 3.13.2, running with linear solver mumps.
NOTE: Other linear solvers might be more efficient (see Ipopt documentation).

Number of nonzeros in equality constraint Jacobian...:      826
Number of nonzeros in inequality constraint Jacobian.:      628
Number of nonzeros in Lagrangian Hessian.............:      276

Total number of variables............................:      309
                     variables with only lower bounds:        0
                variables with lower and upper bounds:      309
                     variables with only upper bounds:        0
Total number of equality constraints.................:      200
Total number of inequality constraints...............:      246
        inequality constraints with only lower bounds:      102
   inequality constraints with lower and upper bounds:        0
        inequality constraints with only upper bounds:      144

iter    objective    inf_pr   inf_du lg(mu)  ||d||  lg(rg) alpha_du alpha_pr  ls
   0  4.0097983e+04 2.52e+00 4.70e+01  -1.0 0.00e+00    -  0.00e+00 0.00e+00   0
   1  4.1267640e+04 2.42e+00 4.57e+01  -1.0 2.58e+00    -  1.54e-02 4.13e-02h  1
   2  4.1366952e+04 2.36e+00 4.15e+01  -1.0 2.85e+00    -  6.13e-02 2.47e-02h  1
   3  4.3091355e+04 2.13e+00 3.88e+01  -1.0 2.26e+00    -  7.98e-02 9.65e-02h  1
   4  4.7118747e+04 1.62e+00 2.70e+01  -1.0 2.38e+00    -  3.68e-01 2.38e-01h  1
   5  4.8750296e+04 1.37e+00 2.78e+01  -1.0 3.76e+00    -  3.61e-01 1.58e-01h  1
   6  5.0089505e+04 1.14e+00 1.22e+02  -1.0 5.69e+00    -  4.70e-01 1.66e-01h  1
   7  5.1035397e+04 9.75e-01 1.73e+02  -1.0 9.37e+00    -  6.64e-01 1.44e-01h  1
   8  5.2107171e+04 8.31e-01 2.37e+02  -1.0 1.53e+01    -  1.00e+00 1.48e-01h  1
   9  5.3777708e+04 6.59e-01 2.18e+02  -1.0 1.85e+01    -  7.48e-01 2.08e-01h  1
iter    objective    inf_pr   inf_du lg(mu)  ||d||  lg(rg) alpha_du alpha_pr  ls
  10  5.5235078e+04 5.91e-01 2.08e+02  -1.0 4.08e+00    -  1.68e-01 1.03e-01h  1
  11  6.0623848e+04 3.74e-01 1.10e+02  -1.0 2.58e+00    -  1.05e-01 3.67e-01h  1
  12  6.9070941e+04 8.13e-02 5.02e+01  -1.0 2.08e+00    -  1.00e+00 7.83e-01h  1
  13  7.1742131e+04 1.50e-14 1.02e+00  -1.0 1.55e+00    -  9.85e-01 1.00e+00h  1
  14  7.1759831e+04 1.55e-14 2.07e-01  -1.0 1.36e+00    -  1.00e+00 1.00e+00h  1
  15  7.1064455e+04 1.62e-14 2.22e+00  -1.7 6.08e-01    -  9.26e-01 8.84e-01f  1
  16  7.0919432e+04 2.63e-14 2.21e+00  -1.7 6.89e-01    -  1.00e+00 7.87e-01f  1
  17  7.0904204e+04 1.42e-14 4.73e-02  -1.7 1.02e-01    -  1.00e+00 1.00e+00f  1
  18  7.0772886e+04 1.90e-14 4.54e+00  -2.5 4.51e-01    -  9.86e-01 6.90e-01f  1
  19  7.0717446e+04 1.80e-14 2.83e-02  -2.5 3.25e-01    -  1.00e+00 1.00e+00f  1
iter    objective    inf_pr   inf_du lg(mu)  ||d||  lg(rg) alpha_du alpha_pr  ls
  20  7.0719152e+04 2.21e-14 3.21e-04  -2.5 5.05e-02    -  1.00e+00 1.00e+00h  1
  21  7.0697425e+04 1.55e-14 1.47e+00  -3.8 2.07e-01    -  9.39e-01 7.94e-01f  1
  22  7.0692123e+04 2.08e-06 1.94e-03  -3.8 1.30e-01    -  1.00e+00 1.00e+00h  1
  23  7.0692160e+04 1.50e-14 1.24e-04  -3.8 3.53e-02    -  1.00e+00 1.00e+00h  1
  24  7.0690723e+04 1.57e-06 1.51e-02  -5.7 4.70e-02    -  9.95e-01 9.80e-01h  1
  25  7.0690699e+04 1.69e-07 3.00e-05  -5.7 1.78e-02    -  1.00e+00 1.00e+00h  1
  26  7.0690700e+04 1.10e-14 8.06e-07  -5.7 3.06e-03    -  1.00e+00 1.00e+00h  1
  27  7.0690682e+04 1.55e-09 1.52e-07  -8.6 1.37e-03    -  1.00e+00 1.00e+00h  1
  28  7.0690682e+04 1.95e-14 3.81e-11  -8.6 2.11e-05    -  1.00e+00 1.00e+00h  1

Number of Iterations....: 28

                                   (scaled)                 (unscaled)
Objective...............:   5.4377447544429174e+02    7.0690681807757923e+04
Dual infeasibility......:   3.8136599405041025e-11    4.9577579226553332e-09
Constraint violation....:   1.9539925233402755e-14    1.9539925233402755e-14
Complementarity.........:   2.5138655635837428e-09    3.2680252326588654e-07
Overall NLP error.......:   2.5138655635837428e-09    3.2680252326588654e-07


Number of objective function evaluations             = 29
Number of objective gradient evaluations             = 29
Number of equality constraint evaluations            = 29
Number of inequality constraint evaluations          = 29
Number of equality constraint Jacobian evaluations   = 29
Number of inequality constraint Jacobian evaluations = 29
Number of Lagrangian Hessian evaluations             = 28
Total CPU secs in IPOPT (w/o function evaluations)   =      0.340
Total CPU secs in NLP function evaluations           =      0.257

EXIT: Optimal Solution Found.
Time to Solution........:1.3668408393859863
